# Objective value = 1.9554326353688168e+03
x[0] 1
x[1] 0
x[2] 1
x[3] 1
x[4] 0
x[5] 1
x[6] 1
x[7] 1
x[8] 0
x[9] 0
x[10] 0
x[11] 0
x[12] 0
x[13] 1
x[14] 1
x[15] 0
x[16] 1
x[17] 0
x[18] 1
x[19] 1
x[20] 0
x[21] 1
x[22] 0
x[23] 0
x[24] 0
x[25] 1
x[26] 0
x[27] 0
x[28] 1
x[29] 1
x[30] 0
x[31] 1
x[32] 1
x[33] 0
x[34] 1
x[35] 1
x[36] 1
x[37] 1
x[38] 1
x[39] 0
x[40] 1
x[41] 0
x[42] 1
x[43] 0
x[44] 1
x[45] 0
x[46] 1
x[47] 1
x[48] 0
x[49] 0
x[50] 1
x[51] 1
x[52] 1
x[53] 1
x[54] 1
x[55] 1
x[56] 1
x[57] 1
x[58] 0
x[59] 0
x[60] 0
x[61] 0
x[62] 0
x[63] 1
x[64] 1
x[65] 0
x[66] 0
x[67] 1
x[68] 0
x[69] 0
x[70] 1
x[71] 1
x[72] 0
x[73] 0
x[74] 0
x[75] 1
x[76] 1
x[77] 0
x[78] 1
x[79] 0
x[80] 1
x[81] 1
x[82] 1
x[83] 0
x[84] 0
x[85] 0
x[86] 0
x[87] 1
x[88] 0
x[89] 0
x[90] 1
x[91] 0
x[92] 1
x[93] 0
x[94] 0
x[95] 0
x[96] 1
x[97] 0
x[98] 1
x[99] 0
x[100] 1
x[101] 0
x[102] 1
x[103] 1
x[104] 1
x[105] 0
x[106] 0
x[107] 0
x[108] 1
x[109] 0
x[110] 0
x[111] 0
x[112] 1
x[113] 1
x[114] 1
x[115] 0
x[116] 1
x[117] 1
x[118] 1
x[119] 0
x[120] 0
x[121] 1
x[122] 1
x[123] 1
x[124] 1
x[125] 0
x[126] 1
x[127] 1
x[128] 1
x[129] 1
x[130] 1
x[131] 0
x[132] 1
x[133] 1
x[134] 0
x[135] 0
x[136] 0
x[137] 1
x[138] 1
x[139] 1
x[140] 1
x[141] 1
x[142] 0
x[143] 1
x[144] 1
x[145] 0
x[146] 1
x[147] 0
x[148] 1
x[149] 1
x[150] 0
x[151] 1
x[152] 1
x[153] 0
x[154] 1
x[155] 1
x[156] 1
x[157] 1
x[158] 0
x[159] 1
x[160] 1
x[161] 1
x[162] 1
x[163] 1
x[164] 0
x[165] 0
x[166] 0
x[167] 0
x[168] 0
x[169] 1
x[170] 0
x[171] 1
x[172] 1
x[173] 1
x[174] 1
x[175] 1
x[176] 1
x[177] 1
x[178] 0
x[179] 0
x[180] 0
x[181] 1
x[182] 1
x[183] 1
x[184] 1
x[185] 1
x[186] 0
x[187] 1
x[188] 1
x[189] 0
x[190] 1
x[191] 1
x[192] 1
x[193] 1
x[194] 1
x[195] 1
x[196] 1
x[197] 1
x[198] 1
x[199] 1
x[200] 0
x[201] 0
x[202] 1
x[203] 1
x[204] 1
x[205] 1
x[206] 1
x[207] 0
x[208] 1
x[209] 0
x[210] 0
x[211] 0
x[212] 0
x[213] 1
x[214] 0
x[215] 0
x[216] 0
x[217] 0
x[218] 1
x[219] 1
x[220] 1
x[221] 1
x[222] 0
x[223] 1
x[224] 1
x[225] 0
x[226] 1
x[227] 0
x[228] 1
x[229] 1
x[230] 0
x[231] 0
x[232] 1
x[233] 1
x[234] 0
x[235] 1
x[236] 1
x[237] 0
x[238] 0
x[239] 1
x[240] 1
x[241] 1
x[242] 1
x[243] 1
x[244] 0
x[245] 0
x[246] 0
x[247] 0
x[248] 1
x[249] 1
x[250] 0
x[251] 0
x[252] 1
x[253] 1
x[254] 0
x[255] 1
x[256] 1
x[257] 0
x[258] 0
x[259] 0
x[260] 1
x[261] 0
x[262] 1
x[263] 0
x[264] 1
x[265] 1
x[266] 0
x[267] 0
x[268] 0
x[269] 0
x[270] 0
x[271] 0
x[272] 0
x[273] 1
x[274] 0
x[275] 1
x[276] 1
x[277] 1
x[278] 1
x[279] 0
x[280] 1
x[281] 1
x[282] 0
x[283] 0
x[284] 1
x[285] 0
x[286] 1
x[287] 0
x[288] 1
x[289] 0
x[290] 1
x[291] 1
x[292] 0
x[293] 1
x[294] 1
x[295] 1
x[296] 1
x[297] 1
x[298] 1
x[299] 1
x[300] 0
x[301] 1
x[302] 1
x[303] 1
x[304] 1
x[305] 0
x[306] 1
x[307] 0
x[308] 1
x[309] 1
x[310] 1
x[311] 0
x[312] 0
x[313] 0
x[314] 0
x[315] 1
x[316] 0
x[317] 0
x[318] 1
x[319] 1
x[320] 0
x[321] 1
x[322] 1
x[323] 0
x[324] 1
x[325] 1
x[326] 0
x[327] 0
x[328] 1
x[329] 1
x[330] 0
x[331] 0
x[332] 1
x[333] 0
x[334] 1
x[335] 1
x[336] 1
x[337] 1
x[338] 0
x[339] 1
x[340] 1
x[341] 0
x[342] 1
x[343] 1
x[344] 0
x[345] 0
x[346] 1
x[347] 1
x[348] 0
x[349] 0
x[350] 0
x[351] 1
x[352] 1
x[353] 1
x[354] 1
x[355] 0
x[356] 0
x[357] 1
x[358] 1
x[359] 0
x[360] 0
x[361] 1
x[362] 1
x[363] 0
x[364] 1
x[365] 0
x[366] 1
x[367] 0
x[368] 1
x[369] 0
x[370] 0
x[371] 1
x[372] 1
x[373] 1
x[374] 0
x[375] 1
x[376] 0
x[377] 1
x[378] 0
x[379] 1
x[380] 1
x[381] 1
x[382] 0
x[383] 0
x[384] 1
x[385] 1
x[386] 0
x[387] 1
x[388] 1
x[389] 1
x[390] 1
x[391] 0
x[392] 1
x[393] 0
x[394] 1
x[395] 0
x[396] 0
x[397] 1
x[398] 1
x[399] 1
x[400] 1
x[401] 1
x[402] 0
x[403] 1
x[404] 1
x[405] 1
x[406] 1
x[407] 0
x[408] 1
x[409] 1
x[410] 1
x[411] 1
x[412] 1
x[413] 0
x[414] 1
x[415] 0
x[416] 1
x[417] 0
x[418] 0
x[419] 1
x[420] 0
x[421] 1
x[422] 0
x[423] 0
x[424] 0
x[425] 1
x[426] 1
x[427] 1
x[428] 0
x[429] 0
x[430] 1
x[431] 0
x[432] 1
x[433] 1
x[434] 0
x[435] 1
x[436] 1
x[437] 0
x[438] 1
x[439] 0
x[440] 0
x[441] 0
x[442] 0
x[443] 1
x[444] 0
x[445] 1
x[446] 0
x[447] 0
x[448] 0
x[449] 1
x[450] 0
x[451] 1
x[452] 1
x[453] 1
x[454] 1
x[455] 1
x[456] 1
x[457] 0
x[458] 1
x[459] 0
x[460] 1
x[461] 0
x[462] 0
x[463] 1
x[464] 1
x[465] 1
x[466] 0
x[467] 0
x[468] 0
x[469] 0
x[470] 1
x[471] 0
x[472] 1
x[473] 1
x[474] 0
x[475] 1
x[476] 1
x[477] 0
x[478] 1
x[479] 0
x[480] 0
x[481] 0
x[482] 0
x[483] 1
x[484] 0
x[485] 1
x[486] 1
x[487] 0
x[488] 1
x[489] 0
x[490] 1
x[491] 0
x[492] 0
x[493] 1
x[494] 0
x[495] 0
x[496] 1
x[497] 1
x[498] 1
x[499] 1
x[500] 1
x[501] 0
x[502] 0
x[503] 1
x[504] 0
x[505] 0
x[506] 0
x[507] 1
x[508] 0
x[509] 0
x[510] 1
x[511] 1
x[512] 1
x[513] 0
x[514] 0
x[515] 1
x[516] 1
x[517] 0
x[518] 1
x[519] 0
x[520] 1
x[521] 0
x[522] 0
x[523] 1
x[524] 0
x[525] 1
x[526] 1
x[527] 1
x[528] 1
x[529] 0
x[530] 1
x[531] 0
x[532] 1
x[533] 1
x[534] 1
x[535] 0
x[536] 1
x[537] 1
x[538] 1
x[539] 0
x[540] 0
x[541] 0
x[542] 0
x[543] 0
x[544] 1
x[545] 1
x[546] 0
x[547] 1
x[548] 1
x[549] 0
x[550] 0
x[551] 1
x[552] 1
x[553] 0
x[554] 1
x[555] 1
x[556] 1
x[557] 1
x[558] 0
x[559] 1
x[560] 0
x[561] 1
x[562] 1
x[563] 1
x[564] 0
x[565] 0
x[566] 0
x[567] 0
x[568] 0
x[569] 1
x[570] 0
x[571] 0
x[572] 0
x[573] 0
x[574] 1
x[575] 1
x[576] 0
x[577] 1
x[578] 1
x[579] 0
x[580] 0
x[581] 0
x[582] 0
x[583] 0
x[584] 1
x[585] 1
x[586] 1
x[587] 1
x[588] 1
x[589] 1
x[590] 1
x[591] 1
x[592] 1
x[593] 1
x[594] 0
x[595] 0
x[596] 1
x[597] 0
x[598] 1
x[599] 0
x[600] 0
x[601] 1
x[602] 1
x[603] 0
x[604] 0
x[605] 0
x[606] 0
x[607] 1
x[608] 1
x[609] 0
x[610] 1
x[611] 0
x[612] 1
x[613] 1
x[614] 1
x[615] 0
x[616] 1
x[617] 1
x[618] 0
x[619] 1
x[620] 1
x[621] 0
x[622] 0
x[623] 1
x[624] 0
x[625] 1
x[626] 1
x[627] 0
x[628] 0
x[629] 1
x[630] 0
x[631] 1
x[632] 1
x[633] 0
x[634] 0
x[635] 1
x[636] 0
x[637] 1
x[638] 0
x[639] 1
x[640] 0
x[641] 1
x[642] 0
x[643] 1
x[644] 1
x[645] 1
x[646] 1
x[647] 1
x[648] 1
x[649] 1
x[650] 0
x[651] 1
x[652] 1
x[653] 0
x[654] 0
x[655] 1
x[656] 1
x[657] 0
x[658] 1
x[659] 0
x[660] 1
x[661] 0
x[662] 1
x[663] 0
x[664] 1
x[665] 0
x[666] 0
x[667] 1
x[668] 0
x[669] 0
x[670] 0
x[671] 1
x[672] 0
x[673] 1
x[674] 0
x[675] 0
x[676] 1
x[677] 1
x[678] 0
x[679] 0
x[680] 1
x[681] 1
x[682] 0
x[683] 1
x[684] 1
x[685] 1
x[686] 0
x[687] 0
x[688] 0
x[689] 0
x[690] 1
x[691] 1
x[692] 1
x[693] 1
x[694] 0
x[695] 1
x[696] 1
x[697] 0
x[698] 1
x[699] 1
x[700] 1
x[701] 1
x[702] 0
x[703] 1
x[704] 1
x[705] 0
x[706] 0
x[707] 1
x[708] 1
x[709] 1
x[710] 1
x[711] 0
x[712] 1
x[713] 1
x[714] 0
x[715] 0
x[716] 1
x[717] 0
x[718] 1
x[719] 1
x[720] 1
x[721] 1
x[722] 0
x[723] 1
x[724] 1
x[725] 0
x[726] 0
x[727] 1
x[728] 1
x[729] 1
x[730] 1
x[731] 0
x[732] 0
x[733] 0
x[734] 1
x[735] 0
x[736] 1
x[737] 1
x[738] 1
x[739] 1
x[740] 0
x[741] 0
x[742] 0
x[743] 0
x[744] 1
x[745] 1
x[746] 1
x[747] 1
x[748] 1
x[749] 0
x[750] 1
x[751] 0
x[752] 0
x[753] 1
x[754] 1
x[755] 1
x[756] 0
x[757] 0
x[758] 0
x[759] 0
x[760] 0
x[761] 0
x[762] 1
x[763] 1
x[764] 0
x[765] 0
x[766] 1
x[767] 1
x[768] 1
x[769] 0
x[770] 0
x[771] 1
x[772] 1
x[773] 0
x[774] 1
x[775] 1
x[776] 0
x[777] 1
x[778] 0
x[779] 0
x[780] 0
x[781] 0
x[782] 1
x[783] 0
x[784] 0
x[785] 0
x[786] 0
x[787] 0
x[788] 1
x[789] 1
x[790] 1
x[791] 0
x[792] 0
x[793] 1
x[794] 1
x[795] 0
x[796] 1
x[797] 1
x[798] 1
x[799] 1
x[800] 0
x[801] 1
x[802] 0
x[803] 0
x[804] 0
x[805] 1
x[806] 1
x[807] 0
x[808] 1
x[809] 0
x[810] 1
x[811] 1
x[812] 0
x[813] 1
x[814] 1
x[815] 1
x[816] 0
x[817] 1
x[818] 0
x[819] 1
x[820] 1
x[821] 0
x[822] 1
x[823] 0
x[824] 0
x[825] 1
x[826] 1
x[827] 1
x[828] 0
x[829] 1
x[830] 1
x[831] 1
x[832] 0
x[833] 1
x[834] 0
x[835] 1
x[836] 0
x[837] 1
x[838] 1
x[839] 0
x[840] 1
x[841] 0
x[842] 1
x[843] 0
x[844] 0
x[845] 1
x[846] 0
x[847] 0
x[848] 0
x[849] 0
x[850] 0
x[851] 0
x[852] 0
x[853] 0
x[854] 1
x[855] 0
x[856] 1
x[857] 0
x[858] 1
x[859] 1
x[860] 0
x[861] 1
x[862] 0
x[863] 0
x[864] 1
x[865] 0
x[866] 0
x[867] 0
x[868] 0
x[869] 1
x[870] 0
x[871] 0
x[872] 1
x[873] 0
x[874] 1
x[875] 0
x[876] 0
x[877] 1
x[878] 0
x[879] 0
x[880] 1
x[881] 1
x[882] 1
x[883] 1
x[884] 0
x[885] 1
x[886] 1
x[887] 0
x[888] 1
x[889] 1
x[890] 1
x[891] 1
x[892] 1
x[893] 1
x[894] 0
x[895] 1
x[896] 1
x[897] 0
x[898] 0
x[899] 1
x[900] 1
x[901] 0
x[902] 1
x[903] 0
x[904] 0
x[905] 0
x[906] 0
x[907] 1
x[908] 1
x[909] 1
x[910] 0
x[911] 1
x[912] 1
x[913] 1
x[914] 0
x[915] 0
x[916] 1
x[917] 1
x[918] 1
x[919] 0
x[920] 0
x[921] 0
x[922] 1
x[923] 1
x[924] 1
x[925] 1
x[926] 0
x[927] 1
x[928] 1
x[929] 1
x[930] 1
x[931] 0
x[932] 0
x[933] 0
x[934] 1
x[935] 1
x[936] 0
x[937] 1
x[938] 1
x[939] 0
x[940] 1
x[941] 1
x[942] 1
x[943] 0
x[944] 1
x[945] 1
x[946] 1
x[947] 0
x[948] 1
x[949] 0
x[950] 1
x[951] 0
x[952] 1
x[953] 0
x[954] 1
x[955] 1
x[956] 1
x[957] 1
x[958] 1
x[959] 0
x[960] 0
x[961] 1
x[962] 1
x[963] 1
x[964] 0
x[965] 1
x[966] 0
x[967] 1
x[968] 1
x[969] 1
x[970] 1
x[971] 0
x[972] 1
x[973] 1
x[974] 1
x[975] 1
x[976] 0
x[977] 1
x[978] 0
x[979] 0
x[980] 1
x[981] 1
x[982] 0
x[983] 1
x[984] 1
x[985] 1
x[986] 0
x[987] 1
x[988] 0
x[989] 1
x[990] 0
x[991] 1
x[992] 0
x[993] 1
x[994] 1
x[995] 0
x[996] 1
x[997] 1
x[998] 0
x[999] 0
